Optimizer called with the following parameters:
{'focal_plane_mask': {'field_stop_radius': None,
                      'grayscale': True,
                      'num_pix': 150,
                      'radius': 3.8000000000000003},
 'image': {'bandwidth': 0.2,
           'contrast': 10,
           'iwa': 3.7,
           'num_wavelengths': 5,
           'owa': 14.0,
           'resolution': 2},
 'instrument': {'inst_name': 'USORT'},
 'lyot_stop': {'alignment_tolerance': 0,
               'filename': 'USORT/LS_USORT_circ_ID0000_OD0990_ovsamp16_N0128.fits',
               'num_lyot_stops': 1},
 'method': {'edge_width_for_prior': 2,
            'ending_scale': 1,
            'force_no_hermitian_symmetry': False,
            'force_no_x_mirror_symmetry': False,
            'force_no_y_mirror_symmetry': False,
            'initial_throughput_estimate': 1,
            'maximize_planet_throughput': True,
            'num_throughput_iterations': 2,
            'starting_scale': 1},
 'pupil': {'N': 128,
           'filename': 'USORT/TelAp_USORT_offaxis_ovsamp16_N0128.fits'},
 'solver': {'crossover': 0,
            'method': 2,
            'num_threads': 0}}

File organization:
{'analysis_dir': '/user/bnickson/GitHub/LUVex_TelAps/aplc_optimization/surveys/usort_offaxis_survey_N0128_telserv3/FPM38_IWA37/analysis',
 'drivers_dir': '/user/bnickson/GitHub/LUVex_TelAps/aplc_optimization/surveys/usort_offaxis_survey_N0128_telserv3/FPM38_IWA37/drivers',
 'input_files_dir': '/user/bnickson/GitHub/LUVex_TelAps/aplc_optimization/masks',
 'log_dir': '/user/bnickson/GitHub/LUVex_TelAps/aplc_optimization/surveys/usort_offaxis_survey_N0128_telserv3/FPM38_IWA37/logs',
 'solution_dir': '/user/bnickson/GitHub/LUVex_TelAps/aplc_optimization/surveys/usort_offaxis_survey_N0128_telserv3/FPM38_IWA37/solutions',
 'survey_dir': '/user/bnickson/GitHub/LUVex_TelAps/aplc_optimization/surveys/usort_offaxis_survey_N0128_telserv3/FPM38_IWA37'}

Telescope pupil:
   Mirror symmetry in x: yes
   Mirror symmetry in y: yes

Lyot stop #0:
   Mirror symmetry in x: yes
Lyot stop #0:
   Mirror symmetry in y: yes

Complete APLC:
   Mirror symmetry in x: yes
   Mirror symmetry in y: yes

Starting optimization at scale 1 with 2726 variables and 2875 constraints.
Creating model...
Set parameter Username
Academic license - for non-commercial use only - expires 2024-10-25
Set parameter Crossover to value 0
Set parameter Method to value 2
Calculating and adding constraints...
Wavelength 1/5; Variable 1000/2726
Wavelength 1/5; Variable 2000/2726
Wavelength 2/5; Variable 1000/2726
Wavelength 2/5; Variable 2000/2726
Wavelength 3/5; Variable 1000/2726
Wavelength 3/5; Variable 2000/2726
Wavelength 4/5; Variable 1000/2726
Wavelength 4/5; Variable 2000/2726
Wavelength 5/5; Variable 1000/2726
Wavelength 5/5; Variable 2000/2726
Start optimization...
Gurobi Optimizer version 10.0.3 build v10.0.3rc0 (linux64)

CPU model: Intel(R) Xeon(R) Gold 6146 CPU @ 3.20GHz, instruction set [SSE2|AVX|AVX2|AVX512]
Thread count: 24 physical cores, 48 logical processors, using up to 24 threads

Optimize a model with 5750 rows, 2726 columns and 15674500 nonzeros
Model fingerprint: 0x0f262b01
Coefficient statistics:
  Matrix range     [2e-12, 5e-04]
  Objective range  [2e-03, 1e+00]
  Bounds range     [1e+00, 1e+00]
  RHS range        [1e-05, 1e-05]
Presolve time: 5.29s
Presolved: 2726 rows, 8476 columns, 15677226 nonzeros
Error: invalid user locale; possible fix is to set the system environment
       variable 'LC_ALL' to a valid locale (e.g., to 'C')
Ordering time: 0.04s

Barrier statistics:
 AA' NZ     : 3.714e+06
 Factor NZ  : 3.717e+06 (roughly 34 MB of memory)
 Factor Ops : 6.756e+09 (less than 1 second per iteration)
 Threads    : 24

                  Objective                Residual
Iter       Primal          Dual         Primal    Dual     Compl     Time
   0   5.67311073e+03  0.00000000e+00  0.00e+00 0.00e+00  9.87e-01     7s
   1   2.84113046e+03  7.79764172e+02  0.00e+00 1.16e-01  2.93e-01     7s
   2   2.14102458e+03  1.12806745e+03  0.00e+00 7.14e-02  1.48e-01     8s
   3   1.86321735e+03  1.18505020e+03  0.00e+00 6.17e-02  1.09e-01     8s
   4   1.66284166e+03  1.22774526e+03  0.00e+00 4.90e-02  8.22e-02     8s
   5   1.50467961e+03  1.24949036e+03  0.00e+00 3.97e-02  6.15e-02     9s
   6   1.43869417e+03  1.25021739e+03  0.00e+00 3.35e-02  5.10e-02     9s
   7   1.33382763e+03  1.23909210e+03  0.00e+00 2.61e-02  3.70e-02    10s
   8   1.29266348e+03  1.23144989e+03  0.00e+00 2.39e-02  3.22e-02    10s
   9   1.25426441e+03  1.21393073e+03  0.00e+00 2.08e-02  2.76e-02    10s
  10   1.22701329e+03  1.20370065e+03  0.00e+00 1.91e-02  2.44e-02    10s
  11   1.21256691e+03  1.19579320e+03  0.00e+00 1.78e-02  2.24e-02    11s
  12   1.16445185e+03  1.17635084e+03  0.00e+00 1.45e-02  1.63e-02    11s
  13   1.14385532e+03  1.16986111e+03  0.00e+00 1.35e-02  1.41e-02    11s
  14   1.13302413e+03  1.15762592e+03  0.00e+00 1.20e-02  1.25e-02    12s
  15   1.11685732e+03  1.13396824e+03  0.00e+00 9.21e-03  9.99e-03    12s
  16   1.10620757e+03  1.13068911e+03  0.00e+00 8.84e-03  9.04e-03    12s
  17   1.08095596e+03  1.11489967e+03  0.00e+00 7.25e-03  6.59e-03    13s
  18   1.07532007e+03  1.09641628e+03  0.00e+00 5.43e-03  5.37e-03    13s
  19   1.06886211e+03  1.08941879e+03  0.00e+00 4.77e-03  4.60e-03    13s
  20   1.05526998e+03  1.07888517e+03  0.00e+00 3.74e-03  3.05e-03    14s
  21   1.04881509e+03  1.07252599e+03  0.00e+00 3.17e-03  2.32e-03    14s
  22   1.04757337e+03  1.07146072e+03  0.00e+00 3.07e-03  2.22e-03    14s
  23   1.04720120e+03  1.06638932e+03  0.00e+00 2.61e-03  1.98e-03    15s
  24   1.04391098e+03  1.06382276e+03  0.00e+00 2.38e-03  1.66e-03    15s
  25   1.04247021e+03  1.06069335e+03  0.00e+00 2.14e-03  1.46e-03    15s
  26   1.04093142e+03  1.05813801e+03  0.00e+00 1.92e-03  1.27e-03    16s
  27   1.03883137e+03  1.05119077e+03  0.00e+00 1.36e-03  9.02e-04    16s
  28   1.03690058e+03  1.04658203e+03  0.00e+00 9.86e-04  6.06e-04    16s
  29   1.03623089e+03  1.04312857e+03  0.00e+00 6.97e-04  4.30e-04    17s
  30   1.03561769e+03  1.04008325e+03  0.00e+00 4.54e-04  2.86e-04    17s
  31   1.03512705e+03  1.03878756e+03  0.00e+00 3.50e-04  2.04e-04    17s
  32   1.03483439e+03  1.03753254e+03  0.00e+00 2.51e-04  1.42e-04    18s
  33   1.03476625e+03  1.03663536e+03  0.00e+00 1.80e-04  1.07e-04    18s
  34   1.03463862e+03  1.03594297e+03  0.00e+00 1.26e-04  7.63e-05    19s
  35   1.03455692e+03  1.03557164e+03  0.00e+00 9.72e-05  5.91e-05    19s
  36   1.03448350e+03  1.03533683e+03  0.00e+00 7.96e-05  4.68e-05    19s
  37   1.03442087e+03  1.03499841e+03  0.00e+00 5.40e-05  3.20e-05    20s
  38   1.03437497e+03  1.03476525e+03  0.00e+00 3.62e-05  2.14e-05    20s
  39   1.03433255e+03  1.03464367e+03  0.00e+00 2.68e-05  1.39e-05    20s
  40   1.03431315e+03  1.03446959e+03  2.21e-06 1.35e-05  7.09e-06    21s
  41   1.03430086e+03  1.03440911e+03  3.62e-06 9.00e-06  4.34e-06    21s
  42   1.03429725e+03  1.03434578e+03  4.40e-06 4.24e-06  2.26e-06    22s
  43   1.03429693e+03  1.03434258e+03  4.37e-06 4.00e-06  2.15e-06    22s
  44   1.03429516e+03  1.03432078e+03  7.74e-06 2.33e-06  1.35e-06    23s
  45   1.03429474e+03  1.03431099e+03  9.84e-06 1.60e-06  1.04e-06    24s
  46   1.03429391e+03  1.03430911e+03  2.19e-05 1.46e-06  9.03e-07    24s
  47   1.03429321e+03  1.03430810e+03  1.76e-05 1.38e-06  8.24e-07    25s
  48   1.03429266e+03  1.03430553e+03  1.55e-05 1.19e-06  7.09e-07    25s
  49   1.03429192e+03  1.03430010e+03  3.00e-05 7.82e-07  4.89e-07    26s
  50   1.03429069e+03  1.03429680e+03  2.57e-05 5.34e-07  2.73e-07    27s
  51   1.03429053e+03  1.03429647e+03  3.39e-05 5.09e-07  2.47e-07    27s
  52   1.03429073e+03  1.03429560e+03  3.82e-05 4.44e-07  2.17e-07    28s
  53   1.03429081e+03  1.03429559e+03  3.62e-05 4.44e-07  2.16e-07    28s
  54   1.03429091e+03  1.03429515e+03  4.80e-05 4.10e-07  2.00e-07    29s
  55   1.03429080e+03  1.03429439e+03  5.64e-05 3.53e-07  1.25e-07    29s
  56   1.03429075e+03  1.03429373e+03  5.89e-05 3.03e-07  1.11e-07    30s
  57   1.03429096e+03  1.03429351e+03  5.66e-05 2.87e-07  1.05e-07    30s
  58   1.03429095e+03  1.03429335e+03  5.42e-05 2.75e-07  9.81e-08    31s
  59   1.03429100e+03  1.03429334e+03  5.11e-05 2.74e-07  9.80e-08    32s
  60   1.03429091e+03  1.03429333e+03  5.77e-05 2.73e-07  9.75e-08    32s
  61   1.03429105e+03  1.03429332e+03  5.69e-05 2.73e-07  9.58e-08    33s
  62   1.03429051e+03  1.03429327e+03  7.81e-05 2.69e-07  9.40e-08    33s
  63   1.03429031e+03  1.03429300e+03  9.42e-05 2.49e-07  8.79e-08    34s
  64   1.03429046e+03  1.03429297e+03  9.28e-05 2.46e-07  8.66e-08    35s
  65   1.03429053e+03  1.03429274e+03  1.08e-04 2.29e-07  8.07e-08    35s
  66   1.03429042e+03  1.03429263e+03  1.05e-04 2.21e-07  7.78e-08    36s
  67   1.03429038e+03  1.03429263e+03  1.09e-04 2.21e-07  7.78e-08    36s
  68   1.03428990e+03  1.03429195e+03  1.24e-04 1.70e-07  5.57e-08    37s
  69   1.03428991e+03  1.03429178e+03  1.19e-04 1.57e-07  5.21e-08    37s
  70   1.03429030e+03  1.03429148e+03  1.09e-04 1.34e-07  4.39e-08    38s
  71   1.03429041e+03  1.03429114e+03  1.11e-04 1.09e-07  3.73e-08    39s
  72   1.03429046e+03  1.03429106e+03  1.21e-04 1.03e-07  3.52e-08    39s
  73   1.03429038e+03  1.03429098e+03  1.11e-04 9.70e-08  3.24e-08    40s
  74   1.03429006e+03  1.03429064e+03  7.46e-05 7.16e-08  2.42e-08    40s
  75   1.03429009e+03  1.03429043e+03  6.09e-05 5.57e-08  1.89e-08    41s
  76   1.03429009e+03  1.03429043e+03  6.09e-05 5.57e-08  1.89e-08    42s
  77   1.03429010e+03  1.03429031e+03  6.11e-05 4.73e-08  1.67e-08    42s
  78   1.03428992e+03  1.03429027e+03  8.24e-05 4.42e-08  1.51e-08    43s
  79   1.03428989e+03  1.03429026e+03  7.97e-05 4.32e-08  1.48e-08    43s
  80   1.03428986e+03  1.03429022e+03  7.67e-05 4.05e-08  1.41e-08    44s
  81   1.03428984e+03  1.03429022e+03  7.67e-05 4.03e-08  1.40e-08    44s
  82   1.03428979e+03  1.03429020e+03  7.28e-05 3.89e-08  1.36e-08    45s
  83   1.03428975e+03  1.03429015e+03  6.46e-05 3.52e-08  1.26e-08    45s
  84   1.03428980e+03  1.03428985e+03  6.34e-05 1.30e-08  6.30e-09    47s
  85   1.03428989e+03  1.03428984e+03  5.66e-05 1.19e-08  5.66e-09    47s
  86   1.03428988e+03  1.03428984e+03  5.85e-05 1.19e-08  5.66e-09    48s
  87   1.03429022e+03  1.03428984e+03  8.02e-05 1.17e-08  5.09e-09    48s
  88   1.03429018e+03  1.03428982e+03  6.90e-05 1.05e-08  4.66e-09    49s
  89   1.03429013e+03  1.03428981e+03  6.33e-05 9.96e-09  4.43e-09    50s
  90   1.03429006e+03  1.03428976e+03  7.44e-05 6.25e-09  3.30e-09    51s
  91   1.03429056e+03  1.03428976e+03  6.77e-05 5.74e-09  2.89e-09    51s
  92   1.03429062e+03  1.03428973e+03  5.82e-05 3.54e-09  2.10e-09    52s
  93   1.03429068e+03  1.03428971e+03  5.05e-05 2.16e-09  1.64e-09    52s
  94   1.03429057e+03  1.03428971e+03  6.17e-05 2.15e-09  1.62e-09    53s
  95   1.03429061e+03  1.03428970e+03  9.17e-05 1.72e-09  1.44e-09    54s
  96   1.03428963e+03  1.03428970e+03  9.19e-05 1.17e-09  7.49e-10    54s
  97   1.03428964e+03  1.03428970e+03  9.25e-05 1.13e-09  7.39e-10    55s
  98   1.03428956e+03  1.03428969e+03  8.70e-05 1.10e-09  6.93e-10    55s
  99   1.03428958e+03  1.03428969e+03  8.23e-05 1.01e-09  6.48e-10    56s
 100   1.03428955e+03  1.03428968e+03  1.26e-04 3.08e-10  3.45e-10    57s
 101   1.03428962e+03  1.03428968e+03  1.29e-04 3.08e-10  3.46e-10    57s
 102   1.03428962e+03  1.03428968e+03  1.25e-04 3.03e-10  3.39e-10    58s
 103   1.03428957e+03  1.03428968e+03  1.26e-04 2.93e-10  3.36e-10    58s
 104   1.03428942e+03  1.03428968e+03  1.60e-04 2.50e-10  3.00e-10    59s
 105   1.03428898e+03  1.03428968e+03  1.46e-04 2.22e-10  2.49e-10    60s
 106   1.03428905e+03  1.03428968e+03  2.25e-04 1.29e-10  2.29e-10    60s
 107   1.03428915e+03  1.03428968e+03  1.93e-04 1.10e-10  2.06e-10    61s
 108   1.03428948e+03  1.03428968e+03  1.59e-04 9.57e-11  1.79e-10    62s
 109   1.03428970e+03  1.03428968e+03  1.72e-04 9.57e-11  1.77e-10    62s
 110   1.03428968e+03  1.03428968e+03  1.64e-04 9.23e-11  1.73e-10    63s
 111   1.03428980e+03  1.03428968e+03  1.54e-04 9.08e-11  1.61e-10    63s
 112   1.03428985e+03  1.03428968e+03  1.24e-04 6.22e-11  1.28e-10    64s
 113   1.03428973e+03  1.03428968e+03  8.59e-05 3.00e-12  6.77e-11    65s
 114   1.03428940e+03  1.03428968e+03  1.33e-04 2.86e-12  5.43e-11    65s
 115   1.03428890e+03  1.03428968e+03  1.49e-04 2.96e-12  5.21e-11    66s
 116   1.03428906e+03  1.03428968e+03  1.68e-04 3.43e-12  5.06e-11    66s

Barrier performed 116 iterations in 66.46 seconds (68.64 work units)
Sub-optimal termination - objective 1.03429474e+03

Optimization finished!
Restarting optimization for throughput iteration 1...
Gurobi Optimizer version 10.0.3 build v10.0.3rc0 (linux64)

CPU model: Intel(R) Xeon(R) Gold 6146 CPU @ 3.20GHz, instruction set [SSE2|AVX|AVX2|AVX512]
Thread count: 24 physical cores, 48 logical processors, using up to 24 threads

Optimize a model with 5750 rows, 2726 columns and 15674500 nonzeros
Model fingerprint: 0x074ffb27
Coefficient statistics:
  Matrix range     [2e-12, 5e-04]
  Objective range  [2e-03, 1e+00]
  Bounds range     [1e+00, 1e+00]
  RHS range        [5e-06, 5e-06]
Presolve removed 0 rows and 0 columns (presolve time = 6s) ...
Presolve time: 6.82s
Presolved: 2726 rows, 8476 columns, 15677226 nonzeros
Ordering time: 0.04s

Barrier statistics:
 AA' NZ     : 3.714e+06
 Factor NZ  : 3.717e+06 (roughly 34 MB of memory)
 Factor Ops : 6.756e+09 (less than 1 second per iteration)
 Threads    : 24

                  Objective                Residual
Iter       Primal          Dual         Primal    Dual     Compl     Time
   0   5.58808717e+03  0.00000000e+00  0.00e+00 0.00e+00  9.77e-01     9s
   1   2.76405778e+03  7.59338997e+02  0.00e+00 1.22e-01  2.97e-01     9s
   2   2.00339926e+03  1.08643363e+03  0.00e+00 7.86e-02  1.51e-01     9s
   3   1.77266917e+03  1.15232524e+03  0.00e+00 6.69e-02  1.19e-01    10s
   4   1.53085626e+03  1.17923165e+03  0.00e+00 5.54e-02  9.32e-02    10s
   5   1.40148613e+03  1.19097414e+03  0.00e+00 4.73e-02  7.65e-02    10s
   6   1.30363115e+03  1.17830068e+03  0.00e+00 4.13e-02  6.53e-02    11s
   7   1.20192356e+03  1.16178656e+03  0.00e+00 3.19e-02  4.79e-02    11s
   8   1.15228223e+03  1.13608625e+03  0.00e+00 2.50e-02  3.74e-02    11s
   9   1.10932306e+03  1.13154795e+03  0.00e+00 2.42e-02  3.37e-02    11s
  10   1.08518630e+03  1.11426187e+03  0.00e+00 2.19e-02  3.05e-02    12s
  11   1.07127124e+03  1.10605745e+03  0.00e+00 2.06e-02  2.83e-02    12s
  12   1.02929326e+03  1.09020902e+03  0.00e+00 1.84e-02  2.34e-02    12s
  13   9.96879575e+02  1.05980813e+03  0.00e+00 1.53e-02  1.86e-02    13s
  14   9.77371811e+02  1.05749040e+03  0.00e+00 1.51e-02  1.70e-02    13s
  15   9.63477190e+02  1.03515153e+03  0.00e+00 1.26e-02  1.41e-02    13s
  16   9.57019471e+02  1.02891945e+03  0.00e+00 1.20e-02  1.32e-02    14s
  17   9.48063261e+02  1.02477698e+03  0.00e+00 1.16e-02  1.22e-02    14s
  18   9.37996646e+02  1.00503418e+03  0.00e+00 9.80e-03  1.04e-02    14s
  19   9.31456629e+02  9.80561038e+02  0.00e+00 7.65e-03  8.24e-03    15s
  20   9.29104911e+02  9.77650165e+02  0.00e+00 7.38e-03  7.87e-03    15s
  21   9.23749047e+02  9.68804499e+02  0.00e+00 6.62e-03  6.90e-03    15s
  22   9.15148603e+02  9.64205383e+02  0.00e+00 6.23e-03  6.10e-03    16s
  23   9.13568632e+02  9.60129789e+02  0.00e+00 5.90e-03  5.71e-03    16s
  24   9.12615658e+02  9.54979885e+02  0.00e+00 5.48e-03  5.38e-03    16s
  25   9.07440917e+02  9.44328086e+02  0.00e+00 4.73e-03  4.72e-03    17s
  26   9.04857861e+02  9.39818022e+02  0.00e+00 4.38e-03  4.28e-03    17s
  27   9.02922916e+02  9.35219495e+02  0.00e+00 4.03e-03  3.89e-03    18s
  28   8.94984909e+02  9.24658017e+02  0.00e+00 3.21e-03  2.74e-03    18s
  29   8.91072677e+02  9.14159644e+02  0.00e+00 2.45e-03  2.07e-03    18s
  30   8.87176974e+02  9.10614196e+02  0.00e+00 2.20e-03  1.65e-03    19s
  31   8.86317237e+02  9.07685031e+02  0.00e+00 1.99e-03  1.50e-03    19s
  32   8.84513854e+02  9.02860810e+02  0.00e+00 1.65e-03  1.21e-03    19s
  33   8.82814531e+02  8.98317005e+02  0.00e+00 1.35e-03  9.77e-04    20s
  34   8.82469640e+02  8.97526658e+02  0.00e+00 1.29e-03  9.28e-04    20s
  35   8.82171640e+02  8.95997647e+02  0.00e+00 1.19e-03  8.67e-04    21s
  36   8.81993354e+02  8.94518374e+02  0.00e+00 1.10e-03  8.14e-04    21s
  37   8.81330928e+02  8.93789298e+02  0.00e+00 1.05e-03  7.41e-04    22s
  38   8.80474502e+02  8.92879956e+02  0.00e+00 9.86e-04  6.48e-04    22s
  39   8.80193026e+02  8.91850556e+02  0.00e+00 9.17e-04  5.97e-04    23s
  40   8.79816907e+02  8.89577462e+02  0.00e+00 7.66e-04  5.02e-04    23s
  41   8.79684457e+02  8.87745249e+02  0.00e+00 6.47e-04  4.40e-04    24s
  42   8.79506529e+02  8.87282122e+02  0.00e+00 6.17e-04  4.13e-04    24s
  43   8.79144264e+02  8.85087390e+02  0.00e+00 4.77e-04  3.28e-04    24s
  44   8.78685611e+02  8.83414026e+02  0.00e+00 3.71e-04  2.52e-04    25s
  45   8.78169848e+02  8.81111710e+02  0.00e+00 2.26e-04  1.48e-04    25s
  46   8.78073391e+02  8.79863835e+02  0.00e+00 1.46e-04  1.05e-04    26s
  47   8.78029233e+02  8.79823825e+02  0.00e+00 1.43e-04  1.01e-04    26s
  48   8.77887821e+02  8.79465935e+02  0.00e+00 1.22e-04  8.25e-05    27s
  49   8.77740651e+02  8.78734395e+02  0.00e+00 7.73e-05  5.38e-05    27s
  50   8.77613289e+02  8.78214206e+02  0.00e+00 4.59e-05  3.14e-05    27s
  51   8.77560907e+02  8.77850548e+02  2.58e-06 2.42e-05  1.91e-05    28s
  52   8.77512895e+02  8.77623742e+02  4.21e-06 1.04e-05  9.50e-06    28s
  53   8.77475779e+02  8.77542064e+02  4.13e-06 5.44e-06  4.19e-06    29s
  54   8.77472811e+02  8.77481894e+02  5.98e-06 1.73e-06  2.41e-06    30s
  55   8.77470846e+02  8.77470599e+02  1.22e-05 1.04e-06  1.96e-06    31s
  56   8.77470817e+02  8.77470595e+02  2.17e-05 1.04e-06  1.96e-06    31s
  57   8.77468926e+02  8.77463010e+02  2.94e-05 5.74e-07  1.60e-06    32s
  58   8.77468147e+02  8.77461742e+02  3.05e-05 4.94e-07  1.46e-06    33s
  59   8.77467402e+02  8.77461062e+02  3.31e-05 4.51e-07  1.36e-06    34s
  60   8.77467125e+02  8.77460403e+02  4.28e-05 4.10e-07  1.33e-06    34s
  61   8.77467288e+02  8.77460196e+02  7.21e-05 3.97e-07  1.30e-06    35s
  62   8.77466977e+02  8.77459805e+02  7.08e-05 3.72e-07  1.26e-06    35s
  63   8.77465934e+02  8.77459316e+02  6.69e-05 3.42e-07  1.17e-06    36s
  64   8.77465461e+02  8.77458967e+02  6.63e-05 3.20e-07  1.12e-06    37s
  65   8.77465971e+02  8.77458965e+02  1.03e-04 3.19e-07  1.12e-06    37s
  66   8.77465787e+02  8.77458726e+02  1.03e-04 3.04e-07  1.09e-06    38s
  67   8.77465245e+02  8.77458616e+02  9.90e-05 2.97e-07  1.05e-06    39s
  68   8.77464908e+02  8.77458286e+02  1.02e-04 2.77e-07  1.02e-06    39s
  69   8.77464611e+02  8.77458172e+02  1.15e-04 2.70e-07  9.92e-07    40s
  70   8.77463903e+02  8.77457647e+02  9.87e-05 2.37e-07  9.01e-07    41s
  71   8.77463386e+02  8.77457467e+02  1.06e-04 2.25e-07  8.72e-07    41s
  72   8.77463326e+02  8.77457323e+02  9.88e-05 2.16e-07  8.59e-07    42s
  73   8.77461994e+02  8.77456884e+02  1.57e-04 1.89e-07  7.50e-07    42s
  74   8.77461539e+02  8.77456057e+02  1.63e-04 1.36e-07  6.70e-07    43s
  75   8.77461365e+02  8.77455721e+02  1.45e-04 1.15e-07  6.43e-07    44s
  76   8.77460749e+02  8.77455455e+02  1.38e-04 9.88e-08  5.87e-07    44s
  77   8.77459442e+02  8.77455423e+02  1.09e-04 9.68e-08  4.89e-07    45s
  78   8.77459183e+02  8.77455346e+02  1.22e-04 9.19e-08  4.67e-07    45s
  79   8.77459046e+02  8.77455329e+02  1.25e-04 9.08e-08  4.63e-07    46s
  80   8.77458040e+02  8.77455288e+02  9.90e-05 8.82e-08  4.25e-07    46s
  81   8.77458006e+02  8.77455285e+02  1.15e-04 8.80e-08  4.21e-07    47s
  82   8.77457962e+02  8.77455236e+02  1.28e-04 8.50e-08  4.00e-07    47s
  83   8.77457750e+02  8.77455164e+02  1.37e-04 8.04e-08  3.74e-07    48s
  84   8.77457642e+02  8.77455152e+02  1.37e-04 7.97e-08  3.69e-07    49s
  85   8.77457450e+02  8.77455140e+02  1.32e-04 7.90e-08  3.53e-07    49s
  86   8.77457462e+02  8.77454997e+02  9.45e-05 6.99e-08  3.24e-07    50s
  87   8.77457315e+02  8.77454958e+02  8.73e-05 6.74e-08  3.16e-07    50s
  88   8.77457451e+02  8.77454958e+02  8.28e-05 6.74e-08  3.16e-07    51s
  89   8.77457280e+02  8.77454936e+02  8.63e-05 6.60e-08  3.08e-07    51s
  90   8.77457345e+02  8.77454936e+02  8.33e-05 6.60e-08  3.08e-07    52s
  91   8.77457179e+02  8.77454726e+02  1.10e-04 5.29e-08  2.67e-07    53s
  92   8.77456904e+02  8.77454420e+02  8.40e-05 3.39e-08  2.04e-07    53s
  93   8.77456807e+02  8.77454408e+02  8.34e-05 3.32e-08  1.95e-07    54s
  94   8.77456776e+02  8.77454400e+02  8.85e-05 3.27e-08  1.91e-07    54s
  95   8.77456745e+02  8.77454386e+02  8.89e-05 3.18e-08  1.88e-07    55s
  96   8.77457694e+02  8.77454382e+02  9.98e-05 3.15e-08  1.79e-07    56s
  97   8.77457524e+02  8.77454356e+02  9.79e-05 2.99e-08  1.75e-07    56s
  98   8.77457261e+02  8.77454301e+02  9.79e-05 2.64e-08  1.65e-07    57s
  99   8.77457073e+02  8.77454221e+02  9.73e-05 2.14e-08  1.51e-07    57s
 100   8.77457208e+02  8.77454219e+02  8.96e-05 2.14e-08  1.51e-07    58s
 101   8.77456796e+02  8.77454056e+02  8.09e-05 1.38e-08  1.36e-07    59s
 102   8.77456477e+02  8.77454054e+02  1.36e-04 1.37e-08  1.35e-07    59s
 103   8.77456430e+02  8.77454054e+02  1.34e-04 1.37e-08  1.35e-07    60s
 104   8.77456349e+02  8.77454051e+02  1.27e-04 1.35e-08  1.33e-07    60s
 105   8.77456297e+02  8.77454051e+02  1.27e-04 1.35e-08  1.33e-07    61s
 106   8.77455971e+02  8.77454009e+02  9.96e-05 1.18e-08  9.12e-08    61s
 107   8.77455659e+02  8.77454007e+02  1.11e-04 1.16e-08  8.60e-08    62s
 108   8.77455450e+02  8.77454005e+02  1.18e-04 1.14e-08  8.40e-08    63s
 109   8.77455298e+02  8.77453995e+02  1.09e-04 1.04e-08  8.01e-08    63s
 110   8.77455088e+02  8.77453982e+02  1.10e-04 9.26e-09  7.39e-08    64s
 111   8.77455113e+02  8.77453972e+02  9.54e-05 8.33e-09  6.03e-08    65s
 112   8.77455288e+02  8.77453965e+02  9.90e-05 7.85e-09  5.73e-08    66s
 113   8.77454655e+02  8.77453960e+02  1.07e-04 7.34e-09  5.13e-08    66s
 114   8.77454743e+02  8.77453952e+02  1.42e-04 6.44e-09  4.55e-08    67s
 115   8.77454911e+02  8.77453949e+02  1.23e-04 6.26e-09  4.23e-08    67s
 116   8.77454874e+02  8.77453945e+02  1.20e-04 5.91e-09  3.85e-08    68s
 117   8.77452815e+02  8.77453931e+02  1.87e-04 4.49e-09  1.91e-08    68s
 118   8.77452696e+02  8.77453925e+02  1.83e-04 3.87e-09  1.80e-08    69s
 119   8.77452492e+02  8.77453921e+02  1.09e-04 3.37e-09  1.39e-08    69s
 120   8.77452557e+02  8.77453919e+02  1.05e-04 3.21e-09  1.35e-08    70s
 121   8.77452691e+02  8.77453917e+02  9.86e-05 2.97e-09  1.27e-08    71s
 122   8.77452773e+02  8.77453917e+02  1.06e-04 2.97e-09  1.25e-08    71s
 123   8.77453747e+02  8.77453916e+02  2.18e-04 2.93e-09  1.09e-08    72s
 124   8.77453725e+02  8.77453912e+02  1.49e-04 2.45e-09  7.67e-09    72s
 125   8.77454070e+02  8.77453912e+02  1.04e-04 2.44e-09  7.23e-09    73s
 126   8.77454100e+02  8.77453906e+02  8.45e-05 1.77e-09  4.91e-09    74s
 127   8.77454103e+02  8.77453905e+02  8.58e-05 1.73e-09  4.86e-09    74s
 128   8.77453967e+02  8.77453905e+02  7.67e-05 1.65e-09  4.20e-09    75s
 129   8.77454027e+02  8.77453904e+02  6.60e-05 1.63e-09  3.65e-09    76s
 130   8.77454181e+02  8.77453905e+02  8.66e-05 1.60e-09  3.20e-09    76s
 131   8.77454136e+02  8.77453905e+02  7.96e-05 1.58e-09  3.15e-09    77s
 132   8.77454271e+02  8.77453901e+02  9.23e-05 1.33e-09  2.72e-09    78s
 133   8.77454276e+02  8.77453902e+02  9.27e-05 1.32e-09  2.71e-09    78s
 134   8.77454110e+02  8.77453898e+02  6.58e-05 9.99e-10  2.51e-09    79s
 135   8.77454132e+02  8.77453897e+02  6.78e-05 9.53e-10  2.36e-09    79s
 136   8.77453439e+02  8.77453896e+02  1.24e-04 8.53e-10  1.43e-09    80s
 137   8.77452858e+02  8.77453890e+02  9.97e-05 6.88e-10  1.21e-09    81s
 138   8.77452828e+02  8.77453890e+02  1.04e-04 6.84e-10  1.21e-09    82s
 139   8.77452749e+02  8.77453890e+02  1.05e-04 6.66e-10  1.18e-09    82s
 140   8.77452667e+02  8.77453888e+02  9.02e-05 6.20e-10  1.12e-09    83s
 141   8.77452660e+02  8.77453885e+02  8.76e-05 6.01e-10  1.10e-09    83s
 142   8.77452674e+02  8.77453885e+02  9.73e-05 6.01e-10  1.10e-09    84s
 143   8.77452706e+02  8.77453884e+02  8.59e-05 4.75e-10  9.59e-10    84s
 144   8.77452834e+02  8.77453882e+02  9.56e-05 4.12e-10  9.57e-10    85s
 145   8.77452668e+02  8.77453881e+02  9.52e-05 4.02e-10  9.33e-10    86s
 146   8.77452594e+02  8.77453881e+02  1.14e-04 3.69e-10  8.29e-10    86s
 147   8.77452485e+02  8.77453881e+02  1.84e-04 3.64e-10  7.96e-10    87s
 148   8.77452585e+02  8.77453881e+02  1.98e-04 3.63e-10  7.82e-10    87s
 149   8.77452686e+02  8.77453881e+02  1.95e-04 3.49e-10  7.55e-10    88s
 150   8.77452681e+02  8.77453880e+02  1.94e-04 3.16e-10  7.48e-10    88s
 151   8.77452224e+02  8.77453877e+02  2.92e-04 2.27e-10  6.10e-10    89s
 152   8.77452251e+02  8.77453877e+02  2.91e-04 2.27e-10  6.10e-10    90s
 153   8.77452120e+02  8.77453875e+02  3.23e-04 2.26e-10  5.97e-10    90s
 154   8.77452756e+02  8.77453876e+02  2.82e-04 1.91e-10  5.32e-10    92s
 155   8.77452879e+02  8.77453876e+02  2.65e-04 1.66e-10  4.98e-10    93s
 156   8.77452475e+02  8.77453876e+02  2.59e-04 1.66e-10  5.07e-10    94s
 157   8.77451957e+02  8.77453876e+02  2.24e-04 1.25e-10  4.41e-10    94s
 158   8.77451761e+02  8.77453876e+02  2.19e-04 1.19e-10  4.25e-10    95s
 159   8.77451816e+02  8.77453876e+02  1.79e-04 1.08e-10  2.93e-10    96s
 160   8.77452462e+02  8.77453877e+02  1.52e-04 7.69e-11  2.28e-10    97s
 161   8.77451870e+02  8.77453876e+02  1.50e-04 6.66e-11  1.91e-10    99s
 162   8.77451790e+02  8.77453875e+02  1.49e-04 6.46e-11  1.80e-10   100s
 163   8.77452156e+02  8.77453876e+02  1.38e-04 6.09e-11  1.60e-10   101s
 164   8.77452401e+02  8.77453876e+02  1.28e-04 6.07e-11  1.62e-10   101s
 165   8.77452419e+02  8.77453875e+02  1.44e-04 5.73e-11  1.55e-10   102s
 166   8.77452339e+02  8.77453875e+02  1.63e-04 5.45e-11  1.46e-10   102s
 167   8.77453226e+02  8.77453875e+02  1.35e-04 5.33e-11  1.07e-10   102s
 168   8.77453083e+02  8.77453874e+02  1.31e-04 3.42e-11  8.89e-11   103s

Barrier performed 168 iterations in 103.24 seconds (103.28 work units)
Sub-optimal termination - objective 8.77472811e+02

/user/bnickson/GitHub/LUVex_TelAps/aplc_optimization/surveys/usort_offaxis_survey_N0128_telserv3/FPM38_IWA37/drivers/02_USORT_N128_FPM380M0150_IWA0370_OWA01400_C10_BW20_Nlam5_LS_IDc_ID0_OD_OD0_ls_90_ovsamp16_.py:102: DeprecationWarning: circular_aperture is deprecated. Its new name is make_circular_aperture.
  dark_zone_mask = circular_aperture(img_owa * 2)(focal_grid) - circular_aperture(img_iwa * 2)(focal_grid)
/user/bnickson/GitHub/LUVex_TelAps/aplc_optimization/surveys/usort_offaxis_survey_N0128_telserv3/FPM38_IWA37/drivers/02_USORT_N128_FPM380M0150_IWA0370_OWA01400_C10_BW20_Nlam5_LS_IDc_ID0_OD_OD0_ls_90_ovsamp16_.py:110: DeprecationWarning: circular_aperture is deprecated. Its new name is make_circular_aperture.
  focal_plane_mask = 1 - evaluate_supersampled(circular_aperture(2 * fpm_radius), focal_mask_grid, 8)
WARNING: VerifyWarning: Keyword name 'LS_ALIGN_TOl' is greater than 8 characters or contains characters not allowed by the FITS standard; a HIERARCH card will be created. [astropy.io.fits.card]
WARNING: VerifyWarning: Keyword name 'LS_NUM_STOPS' is greater than 8 characters or contains characters not allowed by the FITS standard; a HIERARCH card will be created. [astropy.io.fits.card]
WARNING: VerifyWarning: Keyword name 'PROG_START' is greater than 8 characters or contains characters not allowed by the FITS standard; a HIERARCH card will be created. [astropy.io.fits.card]
WARNING: VerifyWarning: Keyword name 'PROG_EDGE' is greater than 8 characters or contains characters not allowed by the FITS standard; a HIERARCH card will be created. [astropy.io.fits.card]
WARNING: VerifyWarning: Keyword name 'THRPT_ITER' is greater than 8 characters or contains characters not allowed by the FITS standard; a HIERARCH card will be created. [astropy.io.fits.card]
WARNING: VerifyWarning: Keyword name 'THRPT_ESTIM' is greater than 8 characters or contains characters not allowed by the FITS standard; a HIERARCH card will be created. [astropy.io.fits.card]
WARNING: VerifyWarning: Keyword name 'MAX_THRPT' is greater than 8 characters or contains characters not allowed by the FITS standard; a HIERARCH card will be created. [astropy.io.fits.card]
WARNING: VerifyWarning: Keyword name 'SLV_THRDS' is greater than 8 characters or contains characters not allowed by the FITS standard; a HIERARCH card will be created. [astropy.io.fits.card]
WARNING: VerifyWarning: Keyword name 'SLV_XOVER' is greater than 8 characters or contains characters not allowed by the FITS standard; a HIERARCH card will be created. [astropy.io.fits.card]
Optimization finished!
